benchmarks_CP/INST_36x36/45/inst36x36_45_66.dzn
S=6;
start=[|
-1,	-1,	-1,	12,	-1,	-1,	-1,	-1,	35,	-1,	-1,	-1,	34,	28,	-1,	-1,	19,	-1,	16,	26,	-1,	3,	14,	-1,	-1,	-1,	-1,	23,	2,	24,	-1,	17,	15,	-1,	-1,	-1|
-1,	-1,	-1,	-1,	-1,	-1,	-1,	-1,	-1,	-1,	4,	-1,	-1,	3,	-1,	11,	-1,	30,	10,	8,	-1,	-1,	-1,	33,	-1,	-1,	-1,	22,	7,	17,	19,	36,	35,	20,	16,	21|
-1,	-1,	-1,	23,	-1,	-1,	-1,	21,	33,	-1,	-1,	-1,	-1,	1,	29,	-1,	-1,	-1,	-1,	28,	-1,	-1,	-1,	-1,	3,	18,	-1,	12,	-1,	34,	9,	14,	10,	-1,	26,	-1|
-1,	-1,	-1,	-1,	27,	-1,	-1,	22,	36,	34,	23,	24,	7,	5,	-1,	-1,	16,	8,	-1,	21,	18,	-1,	29,	-1,	14,	-1,	-1,	-1,	-1,	-1,	-1,	25,	-1,	-1,	-1,	-1|
18,	22,	16,	21,	-1,	13,	-1,	-1,	-1,	-1,	-1,	-1,	-1,	24,	26,	-1,	32,	25,	30,	-1,	-1,	35,	9,	7,	-1,	-1,	36,	-1,	31,	-1,	23,	-1,	-1,	12,	27,	-1|
-1,	10,	-1,	-1,	-1,	-1,	2,	-1,	12,	6,	-1,	-1,	-1,	27,	-1,	18,	-1,	-1,	34,	25,	31,	5,	23,	13,	32,	11,	-1,	16,	-1,	-1,	-1,	28,	22,	-1,	1,	-1|
12,	31,	30,	5,	-1,	-1,	-1,	-1,	-1,	-1,	28,	4,	8,	-1,	-1,	32,	-1,	18,	-1,	29,	-1,	33,	25,	-1,	35,	-1,	-1,	-1,	-1,	-1,	3,	-1,	14,	-1,	13,	-1|
-1,	-1,	29,	-1,	-1,	6,	23,	-1,	-1,	17,	33,	12,	-1,	-1,	-1,	-1,	30,	28,	5,	34,	-1,	11,	-1,	-1,	4,	22,	2,	-1,	-1,	18,	-1,	26,	21,	-1,	24,	31|
-1,	-1,	-1,	27,	11,	-1,	24,	35,	-1,	-1,	-1,	-1,	-1,	-1,	-1,	33,	-1,	29,	-1,	9,	21,	14,	-1,	31,	-1,	-1,	13,	-1,	8,	-1,	-1,	18,	-1,	-1,	6,	20|
-1,	13,	-1,	7,	-1,	21,	34,	-1,	-1,	-1,	-1,	27,	-1,	-1,	-1,	9,	-1,	-1,	-1,	15,	6,	28,	-1,	26,	-1,	-1,	-1,	-1,	33,	20,	-1,	8,	2,	32,	-1,	16|
32,	18,	33,	-1,	10,	-1,	-1,	-1,	15,	-1,	-1,	6,	16,	-1,	-1,	-1,	-1,	-1,	-1,	-1,	-1,	-1,	-1,	27,	-1,	17,	34,	-1,	36,	-1,	25,	-1,	12,	-1,	-1,	-1|
-1,	-1,	22,	-1,	4,	34,	-1,	-1,	-1,	-1,	10,	3,	-1,	-1,	-1,	19,	14,	-1,	-1,	2,	24,	32,	18,	-1,	-1,	-1,	29,	9,	-1,	-1,	-1,	-1,	-1,	1,	36,	28|
1,	29,	32,	-1,	-1,	28,	12,	34,	4,	13,	2,	-1,	22,	-1,	-1,	-1,	3,	-1,	-1,	-1,	-1,	-1,	-1,	-1,	16,	9,	-1,	-1,	-1,	-1,	24,	-1,	-1,	30,	-1,	17|
-1,	34,	-1,	-1,	15,	27,	30,	-1,	-1,	-1,	35,	-1,	-1,	-1,	-1,	-1,	24,	33,	-1,	11,	23,	1,	-1,	14,	-1,	13,	-1,	2,	-1,	25,	-1,	-1,	29,	26,	8,	9|
-1,	11,	-1,	-1,	23,	-1,	-1,	-1,	-1,	-1,	-1,	1,	20,	-1,	30,	-1,	-1,	13,	21,	-1,	25,	10,	28,	16,	24,	14,	31,	-1,	-1,	-1,	-1,	2,	-1,	6,	-1,	-1|
24,	-1,	-1,	-1,	-1,	16,	-1,	23,	-1,	27,	22,	-1,	5,	-1,	2,	-1,	8,	-1,	-1,	-1,	-1,	-1,	-1,	-1,	-1,	-1,	-1,	-1,	-1,	1,	36,	33,	-1,	-1,	-1,	14|
-1,	-1,	-1,	25,	-1,	14,	9,	15,	26,	31,	24,	11,	18,	-1,	23,	29,	-1,	32,	-1,	5,	17,	34,	30,	-1,	-1,	36,	-1,	-1,	28,	-1,	-1,	3,	1,	21,	-1,	-1|
31,	35,	18,	30,	-1,	4,	10,	8,	-1,	-1,	-1,	14,	-1,	6,	-1,	-1,	7,	-1,	9,	36,	-1,	13,	24,	2,	17,	-1,	-1,	15,	11,	-1,	28,	-1,	-1,	-1,	-1,	23|
13,	15,	14,	-1,	12,	7,	19,	3,	-1,	-1,	-1,	-1,	24,	-1,	20,	-1,	-1,	-1,	-1,	32,	-1,	8,	16,	-1,	2,	5,	23,	-1,	6,	11,	30,	-1,	31,	4,	18,	25|
2,	9,	-1,	-1,	-1,	10,	-1,	-1,	31,	11,	-1,	-1,	21,	35,	-1,	16,	1,	-1,	28,	20,	-1,	-1,	12,	-1,	-1,	4,	15,	-1,	-1,	-1,	-1,	-1,	-1,	3,	17,	27|
8,	-1,	21,	35,	-1,	-1,	7,	-1,	-1,	-1,	-1,	-1,	-1,	-1,	-1,	-1,	11,	-1,	18,	-1,	2,	-1,	-1,	1,	-1,	24,	33,	-1,	34,	-1,	20,	-1,	-1,	-1,	-1,	13|
-1,	32,	25,	6,	3,	5,	18,	-1,	-1,	-1,	-1,	34,	9,	-1,	-1,	-1,	-1,	17,	13,	-1,	-1,	-1,	-1,	30,	-1,	-1,	-1,	7,	19,	-1,	-1,	12,	-1,	-1,	-1,	-1|
-1,	-1,	-1,	-1,	17,	-1,	4,	-1,	13,	-1,	-1,	-1,	-1,	12,	-1,	-1,	34,	-1,	26,	-1,	-1,	29,	35,	21,	25,	10,	-1,	31,	27,	8,	-1,	-1,	-1,	-1,	-1,	7|
-1,	24,	-1,	-1,	-1,	31,	-1,	-1,	27,	-1,	-1,	-1,	-1,	13,	18,	-1,	-1,	6,	11,	23,	4,	7,	-1,	5,	-1,	-1,	-1,	-1,	3,	-1,	-1,	-1,	-1,	22,	-1,	-1|
21,	-1,	34,	-1,	16,	-1,	-1,	-1,	-1,	25,	5,	2,	-1,	-1,	14,	-1,	-1,	-1,	-1,	-1,	33,	12,	-1,	36,	7,	-1,	17,	27,	-1,	-1,	29,	15,	6,	-1,	3,	10|
-1,	-1,	-1,	-1,	-1,	-1,	3,	4,	24,	-1,	20,	35,	25,	18,	-1,	-1,	31,	19,	-1,	-1,	-1,	21,	-1,	-1,	-1,	-1,	11,	-1,	14,	-1,	-1,	9,	-1,	34,	-1,	30|
-1,	14,	-1,	-1,	-1,	15,	21,	-1,	-1,	7,	18,	8,	-1,	-1,	16,	-1,	35,	20,	31,	30,	-1,	-1,	-1,	-1,	-1,	25,	10,	-1,	-1,	3,	-1,	-1,	-1,	36,	2,	11|
10,	-1,	-1,	-1,	-1,	-1,	-1,	-1,	-1,	-1,	-1,	30,	-1,	29,	-1,	-1,	-1,	-1,	-1,	-1,	-1,	-1,	-1,	-1,	18,	31,	24,	-1,	23,	16,	-1,	27,	-1,	14,	7,	26|
-1,	-1,	-1,	-1,	-1,	25,	36,	-1,	-1,	-1,	27,	-1,	-1,	32,	-1,	30,	6,	-1,	-1,	-1,	14,	16,	26,	3,	-1,	-1,	-1,	20,	29,	-1,	17,	-1,	-1,	-1,	-1,	1|
23,	3,	-1,	-1,	-1,	30,	1,	11,	16,	14,	34,	29,	10,	9,	-1,	-1,	-1,	-1,	32,	17,	-1,	-1,	15,	25,	19,	2,	-1,	4,	26,	-1,	-1,	-1,	-1,	8,	20,	-1|
-1,	2,	-1,	-1,	25,	-1,	-1,	-1,	-1,	-1,	-1,	7,	-1,	21,	-1,	-1,	-1,	-1,	27,	-1,	-1,	-1,	11,	-1,	-1,	-1,	-1,	-1,	30,	-1,	16,	29,	-1,	17,	-1,	36|
-1,	21,	-1,	-1,	35,	-1,	-1,	-1,	22,	-1,	-1,	5,	4,	30,	28,	20,	36,	-1,	25,	-1,	34,	-1,	-1,	18,	-1,	-1,	-1,	-1,	10,	-1,	-1,	-1,	8,	-1,	14,	32|
-1,	26,	4,	-1,	5,	-1,	-1,	27,	18,	33,	30,	21,	-1,	11,	-1,	7,	29,	15,	-1,	24,	13,	-1,	-1,	-1,	-1,	23,	-1,	-1,	9,	2,	10,	31,	3,	28,	12,	6|
28,	-1,	36,	24,	-1,	-1,	-1,	-1,	20,	-1,	-1,	13,	-1,	-1,	22,	34,	-1,	-1,	-1,	-1,	-1,	-1,	-1,	-1,	15,	-1,	-1,	11,	-1,	-1,	1,	4,	-1,	25,	-1,	18|
7,	-1,	-1,	16,	-1,	-1,	-1,	-1,	-1,	32,	11,	36,	6,	14,	24,	-1,	18,	-1,	-1,	33,	-1,	15,	2,	-1,	-1,	-1,	-1,	29,	17,	-1,	13,	30,	-1,	-1,	21,	-1|
-1,	33,	-1,	-1,	-1,	-1,	26,	-1,	23,	4,	-1,	-1,	-1,	17,	13,	-1,	-1,	10,	7,	16,	30,	9,	-1,	-1,	34,	-1,	18,	-1,	22,	21,	11,	-1,	-1,	2,	19,	35|];
